N = 7;
H = 6;
T = 2;

avail = array3d(1..N, 1..H, 1..T, [6, 8, 4, 5, 0, 4, 1, 1, 6, 0, 0, 4, 4, 7, 8, 10, 3, 4, 7, 0, 3, 3, 5, 3, 7, 4, 0, 3, 1, 5, 8, 2, 0, 1, 6, 7, 9, 4, 8, 7, 4, 10, 10, 4, 7, 0, 8, 5, 10, 0, 2, 7, 5, 4, 5, 10, 3, 7, 1, 1, 2, 5, 1, 6, 1, 9, 6, 6, 9, 8, 9, 7, 4, 7, 5, 0, 7, 7, 5, 5, 9, 9, 4, 3]);

r = array2d(1..H, 1..T, [3, 3, 3, 3, 3, 2, 2, 1, 3, 0, 1, 2]);
